p cnf 654 1763
-1 2 51 0
1 2 -51 0
-1 -2 -51 0
1 -2 51 0
-3 4 52 0
3 4 -52 0
-3 -4 -52 0
3 -4 52 0
7 8 53 0
-7 8 -53 0
7 -8 -53 0
-7 -8 53 0
11 12 54 0
-11 12 -54 0
11 -12 -54 0
-11 -12 54 0
13 -14 55 0
-13 -14 -55 0
13 14 -55 0
-13 14 55 0
-15 16 56 0
15 16 -56 0
-15 -16 -56 0
15 -16 56 0
19 -27 57 0
-19 -27 -57 0
19 27 -57 0
-19 27 57 0
-31 33 58 0
31 33 -58 0
-31 -33 -58 0
31 -33 58 0
-34 35 59 0
34 35 -59 0
-34 -35 -59 0
34 -35 59 0
-36 39 60 0
36 39 -60 0
-36 -39 -60 0
36 -39 60 0
40 43 61 0
-40 43 -61 0
40 -43 -61 0
-40 -43 61 0
-46 -47 62 0
46 -47 -62 0
-46 47 -62 0
46 47 62 0
48 -49 63 0
-48 -49 -63 0
48 49 -63 0
-48 49 63 0
51 -52 64 0
-51 -52 -64 0
51 52 -64 0
-51 52 64 0
53 -54 65 0
-53 -54 -65 0
53 54 -65 0
-53 54 65 0
55 -56 66 0
-55 -56 -66 0
55 56 -66 0
-55 56 66 0
57 -58 67 0
-57 -58 -67 0
57 58 -67 0
-57 58 67 0
59 -60 68 0
-59 -60 -68 0
59 60 -68 0
-59 60 68 0
61 -62 69 0
-61 -62 -69 0
61 62 -69 0
-61 62 69 0
63 -64 70 0
-63 -64 -70 0
63 64 -70 0
-63 64 70 0
65 -66 71 0
-65 -66 -71 0
65 66 -71 0
-65 66 71 0
67 -68 72 0
-67 -68 -72 0
67 68 -72 0
-67 68 72 0
69 -70 73 0
-69 -70 -73 0
69 70 -73 0
-69 70 73 0
71 -72 74 0
-71 -72 -74 0
71 72 -74 0
-71 72 74 0
73 74 0
-73 -74 0
3 -5 75 0
-3 -5 -75 0
3 5 -75 0
-3 5 75 0
-6 8 76 0
6 8 -76 0
-6 -8 -76 0
6 -8 76 0
9 11 77 0
-9 11 -77 0
9 -11 -77 0
-9 -11 77 0
-12 16 78 0
12 16 -78 0
-12 -16 -78 0
12 -16 78 0
19 -20 79 0
-19 -20 -79 0
19 20 -79 0
-19 20 79 0
-22 -24 80 0
22 -24 -80 0
-22 24 -80 0
22 24 80 0
25 28 81 0
-25 28 -81 0
25 -28 -81 0
-25 -28 81 0
-29 30 82 0
29 30 -82 0
-29 -30 -82 0
29 -30 82 0
-32 33 83 0
32 33 -83 0
-32 -33 -83 0
32 -33 83 0
-34 -35 84 0
34 -35 -84 0
-34 35 -84 0
34 35 84 0
-36 -41 85 0
36 -41 -85 0
-36 41 -85 0
36 41 85 0
-43 44 86 0
43 44 -86 0
-43 -44 -86 0
43 -44 86 0
47 48 87 0
-47 48 -87 0
47 -48 -87 0
-47 -48 87 0
74 -75 88 0
-74 -75 -88 0
74 75 -88 0
-74 75 88 0
76 -77 89 0
-76 -77 -89 0
76 77 -89 0
-76 77 89 0
78 -79 90 0
-78 -79 -90 0
78 79 -90 0
-78 79 90 0
80 -81 91 0
-80 -81 -91 0
80 81 -91 0
-80 81 91 0
82 -83 92 0
-82 -83 -92 0
82 83 -92 0
-82 83 92 0
84 -85 93 0
-84 -85 -93 0
84 85 -93 0
-84 85 93 0
86 -87 94 0
-86 -87 -94 0
86 87 -94 0
-86 87 94 0
88 -89 95 0
-88 -89 -95 0
88 89 -95 0
-88 89 95 0
90 -91 96 0
-90 -91 -96 0
90 91 -96 0
-90 91 96 0
92 -93 97 0
-92 -93 -97 0
92 93 -97 0
-92 93 97 0
94 -95 98 0
-94 -95 -98 0
94 95 -98 0
-94 95 98 0
96 -97 99 0
-96 -97 -99 0
96 97 -99 0
-96 97 99 0
98 99 0
-98 -99 0
-2 -4 100 0
2 -4 -100 0
-2 4 -100 0
2 4 100 0
6 -15 101 0
-6 -15 -101 0
6 15 -101 0
-6 15 101 0
-16 -18 102 0
16 -18 -102 0
-16 18 -102 0
16 18 102 0
-19 -22 103 0
19 -22 -103 0
-19 22 -103 0
19 22 103 0
-24 -26 104 0
24 -26 -104 0
-24 26 -104 0
24 26 104 0
-28 -30 105 0
28 -30 -105 0
-28 30 -105 0
28 30 105 0
32 -34 106 0
-32 -34 -106 0
32 34 -106 0
-32 34 106 0
-42 -45 107 0
42 -45 -107 0
-42 45 -107 0
42 45 107 0
99 -100 108 0
-99 -100 -108 0
99 100 -108 0
-99 100 108 0
101 -102 109 0
-101 -102 -109 0
101 102 -109 0
-101 102 109 0
103 -104 110 0
-103 -104 -110 0
103 104 -110 0
-103 104 110 0
105 -106 111 0
-105 -106 -111 0
105 106 -111 0
-105 106 111 0
107 -108 112 0
-107 -108 -112 0
107 108 -112 0
-107 108 112 0
109 -110 113 0
-109 -110 -113 0
109 110 -113 0
-109 110 113 0
-111 -112 113 0
111 -112 -113 0
-111 112 -113 0
111 112 113 0
3 -8 114 0
-3 -8 -114 0
3 8 -114 0
-3 8 114 0
9 10 115 0
-9 10 -115 0
9 -10 -115 0
-9 -10 115 0
12 -16 116 0
-12 -16 -116 0
12 16 -116 0
-12 16 116 0
-19 -21 117 0
19 -21 -117 0
-19 21 -117 0
19 21 117 0
-22 -23 118 0
22 -23 -118 0
-22 23 -118 0
22 23 118 0
24 27 119 0
-24 27 -119 0
24 -27 -119 0
-24 -27 119 0
-28 32 120 0
28 32 -120 0
-28 -32 -120 0
28 -32 120 0
33 -34 121 0
-33 -34 -121 0
33 34 -121 0
-33 34 121 0
35 -37 122 0
-35 -37 -122 0
35 37 -122 0
-35 37 122 0
-40 -41 123 0
40 -41 -123 0
-40 41 -123 0
40 41 123 0
-42 -45 124 0
42 -45 -124 0
-42 45 -124 0
42 45 124 0
113 -114 125 0
-113 -114 -125 0
113 114 -125 0
-113 114 125 0
115 -116 126 0
-115 -116 -126 0
115 116 -126 0
-115 116 126 0
117 -118 127 0
-117 -118 -127 0
117 118 -127 0
-117 118 127 0
119 -120 128 0
-119 -120 -128 0
119 120 -128 0
-119 120 128 0
121 -122 129 0
-121 -122 -129 0
121 122 -129 0
-121 122 129 0
123 -124 130 0
-123 -124 -130 0
123 124 -130 0
-123 124 130 0
125 -126 131 0
-125 -126 -131 0
125 126 -131 0
-125 126 131 0
127 -128 132 0
-127 -128 -132 0
127 128 -132 0
-127 128 132 0
129 -130 133 0
-129 -130 -133 0
129 130 -133 0
-129 130 133 0
-131 -132 133 0
131 -132 -133 0
-131 132 -133 0
131 132 133 0
-1 2 134 0
1 2 -134 0
-1 -2 -134 0
1 -2 134 0
-3 4 135 0
3 4 -135 0
-3 -4 -135 0
3 -4 135 0
6 -7 136 0
-6 -7 -136 0
6 7 -136 0
-6 7 136 0
8 9 137 0
-8 9 -137 0
8 -9 -137 0
-8 -9 137 0
-10 13 138 0
10 13 -138 0
-10 -13 -138 0
10 -13 138 0
-15 -16 139 0
15 -16 -139 0
-15 16 -139 0
15 16 139 0
17 18 140 0
-17 18 -140 0
17 -18 -140 0
-17 -18 140 0
-23 -24 141 0
23 -24 -141 0
-23 24 -141 0
23 24 141 0
26 -28 142 0
-26 -28 -142 0
26 28 -142 0
-26 28 142 0
-33 34 143 0
33 34 -143 0
-33 -34 -143 0
33 -34 143 0
-35 37 144 0
35 37 -144 0
-35 -37 -144 0
35 -37 144 0
-39 41 145 0
39 41 -145 0
-39 -41 -145 0
39 -41 145 0
42 -45 146 0
-42 -45 -146 0
42 45 -146 0
-42 45 146 0
-46 -49 147 0
46 -49 -147 0
-46 49 -147 0
46 49 147 0
133 -134 148 0
-133 -134 -148 0
133 134 -148 0
-133 134 148 0
135 -136 149 0
-135 -136 -149 0
135 136 -149 0
-135 136 149 0
137 -138 150 0
-137 -138 -150 0
137 138 -150 0
-137 138 150 0
139 -140 151 0
-139 -140 -151 0
139 140 -151 0
-139 140 151 0
141 -142 152 0
-141 -142 -152 0
141 142 -152 0
-141 142 152 0
143 -144 153 0
-143 -144 -153 0
143 144 -153 0
-143 144 153 0
145 -146 154 0
-145 -146 -154 0
145 146 -154 0
-145 146 154 0
147 -148 155 0
-147 -148 -155 0
147 148 -155 0
-147 148 155 0
149 -150 156 0
-149 -150 -156 0
149 150 -156 0
-149 150 156 0
151 -152 157 0
-151 -152 -157 0
151 152 -157 0
-151 152 157 0
153 -154 158 0
-153 -154 -158 0
153 154 -158 0
-153 154 158 0
155 -156 159 0
-155 -156 -159 0
155 156 -159 0
-155 156 159 0
157 -158 160 0
-157 -158 -160 0
157 158 -160 0
-157 158 160 0
159 160 0
-159 -160 0
-1 3 161 0
1 3 -161 0
-1 -3 -161 0
1 -3 161 0
4 -7 162 0
-4 -7 -162 0
4 7 -162 0
-4 7 162 0
8 10 163 0
-8 10 -163 0
8 -10 -163 0
-8 -10 163 0
14 17 164 0
-14 17 -164 0
14 -17 -164 0
-14 -17 164 0
-18 -20 165 0
18 -20 -165 0
-18 20 -165 0
18 20 165 0
-22 23 166 0
22 23 -166 0
-22 -23 -166 0
22 -23 166 0
-26 -27 167 0
26 -27 -167 0
-26 27 -167 0
26 27 167 0
28 30 168 0
-28 30 -168 0
28 -30 -168 0
-28 -30 168 0
34 36 169 0
-34 36 -169 0
34 -36 -169 0
-34 -36 169 0
-37 -39 170 0
37 -39 -170 0
-37 39 -170 0
37 39 170 0
-43 -45 171 0
43 -45 -171 0
-43 45 -171 0
43 45 171 0
-46 49 172 0
46 49 -172 0
-46 -49 -172 0
46 -49 172 0
161 -162 173 0
-161 -162 -173 0
161 162 -173 0
-161 162 173 0
163 -164 174 0
-163 -164 -174 0
163 164 -174 0
-163 164 174 0
165 -166 175 0
-165 -166 -175 0
165 166 -175 0
-165 166 175 0
167 -168 176 0
-167 -168 -176 0
167 168 -176 0
-167 168 176 0
169 -170 177 0
-169 -170 -177 0
169 170 -177 0
-169 170 177 0
171 -172 178 0
-171 -172 -178 0
171 172 -178 0
-171 172 178 0
173 -174 179 0
-173 -174 -179 0
173 174 -179 0
-173 174 179 0
175 -176 180 0
-175 -176 -180 0
175 176 -180 0
-175 176 180 0
177 -178 181 0
-177 -178 -181 0
177 178 -181 0
-177 178 181 0
-179 -180 181 0
179 -180 -181 0
-179 180 -181 0
179 180 181 0
-1 2 182 0
1 2 -182 0
-1 -2 -182 0
1 -2 182 0
-4 5 183 0
4 5 -183 0
-4 -5 -183 0
4 -5 183 0
7 -11 184 0
-7 -11 -184 0
7 11 -184 0
-7 11 184 0
-12 -14 185 0
12 -14 -185 0
-12 14 -185 0
12 14 185 0
17 -18 186 0
-17 -18 -186 0
17 18 -186 0
-17 18 186 0
20 21 187 0
-20 21 -187 0
20 -21 -187 0
-20 -21 187 0
-23 -25 188 0
23 -25 -188 0
-23 25 -188 0
23 25 188 0
28 -31 189 0
-28 -31 -189 0
28 31 -189 0
-28 31 189 0
-34 36 190 0
34 36 -190 0
-34 -36 -190 0
34 -36 190 0
37 39 191 0
-37 39 -191 0
37 -39 -191 0
-37 -39 191 0
-40 -41 192 0
40 -41 -192 0
-40 41 -192 0
40 41 192 0
42 -43 193 0
-42 -43 -193 0
42 43 -193 0
-42 43 193 0
-44 45 194 0
44 45 -194 0
-44 -45 -194 0
44 -45 194 0
-46 49 195 0
46 49 -195 0
-46 -49 -195 0
46 -49 195 0
181 -182 196 0
-181 -182 -196 0
181 182 -196 0
-181 182 196 0
183 -184 197 0
-183 -184 -197 0
183 184 -197 0
-183 184 197 0
185 -186 198 0
-185 -186 -198 0
185 186 -198 0
-185 186 198 0
187 -188 199 0
-187 -188 -199 0
187 188 -199 0
-187 188 199 0
189 -190 200 0
-189 -190 -200 0
189 190 -200 0
-189 190 200 0
191 -192 201 0
-191 -192 -201 0
191 192 -201 0
-191 192 201 0
193 -194 202 0
-193 -194 -202 0
193 194 -202 0
-193 194 202 0
195 -196 203 0
-195 -196 -203 0
195 196 -203 0
-195 196 203 0
197 -198 204 0
-197 -198 -204 0
197 198 -204 0
-197 198 204 0
199 -200 205 0
-199 -200 -205 0
199 200 -205 0
-199 200 205 0
201 -202 206 0
-201 -202 -206 0
201 202 -206 0
-201 202 206 0
203 -204 207 0
-203 -204 -207 0
203 204 -207 0
-203 204 207 0
205 -206 208 0
-205 -206 -208 0
205 206 -208 0
-205 206 208 0
207 208 0
-207 -208 0
-1 -2 209 0
1 -2 -209 0
-1 2 -209 0
1 2 209 0
3 4 210 0
-3 4 -210 0
3 -4 -210 0
-3 -4 210 0
5 6 211 0
-5 6 -211 0
5 -6 -211 0
-5 -6 211 0
-8 9 212 0
8 9 -212 0
-8 -9 -212 0
8 -9 212 0
-11 13 213 0
11 13 -213 0
-11 -13 -213 0
11 -13 213 0
16 -17 214 0
-16 -17 -214 0
16 17 -214 0
-16 17 214 0
-21 -22 215 0
21 -22 -215 0
-21 22 -215 0
21 22 215 0
-23 -24 216 0
23 -24 -216 0
-23 24 -216 0
23 24 216 0
25 28 217 0
-25 28 -217 0
25 -28 -217 0
-25 -28 217 0
-29 -31 218 0
29 -31 -218 0
-29 31 -218 0
29 31 218 0
-32 -36 219 0
32 -36 -219 0
-32 36 -219 0
32 36 219 0
37 38 220 0
-37 38 -220 0
37 -38 -220 0
-37 -38 220 0
42 -46 221 0
-42 -46 -221 0
42 46 -221 0
-42 46 221 0
208 -209 222 0
-208 -209 -222 0
208 209 -222 0
-208 209 222 0
210 -211 223 0
-210 -211 -223 0
210 211 -223 0
-210 211 223 0
212 -213 224 0
-212 -213 -224 0
212 213 -224 0
-212 213 224 0
214 -215 225 0
-214 -215 -225 0
214 215 -225 0
-214 215 225 0
216 -217 226 0
-216 -217 -226 0
216 217 -226 0
-216 217 226 0
218 -219 227 0
-218 -219 -227 0
218 219 -227 0
-218 219 227 0
220 -221 228 0
-220 -221 -228 0
220 221 -228 0
-220 221 228 0
222 -223 229 0
-222 -223 -229 0
222 223 -229 0
-222 223 229 0
224 -225 230 0
-224 -225 -230 0
224 225 -230 0
-224 225 230 0
226 -227 231 0
-226 -227 -231 0
226 227 -231 0
-226 227 231 0
228 -229 232 0
-228 -229 -232 0
228 229 -232 0
-228 229 232 0
230 -231 233 0
-230 -231 -233 0
230 231 -233 0
-230 231 233 0
232 233 0
-232 -233 0
-5 6 234 0
5 6 -234 0
-5 -6 -234 0
5 -6 234 0
-7 -9 235 0
7 -9 -235 0
-7 9 -235 0
7 9 235 0
-10 11 236 0
10 11 -236 0
-10 -11 -236 0
10 -11 236 0
13 -14 237 0
-13 -14 -237 0
13 14 -237 0
-13 14 237 0
20 -21 238 0
-20 -21 -238 0
20 21 -238 0
-20 21 238 0
23 -25 239 0
-23 -25 -239 0
23 25 -239 0
-23 25 239 0
28 -29 240 0
-28 -29 -240 0
28 29 -240 0
-28 29 240 0
31 32 241 0
-31 32 -241 0
31 -32 -241 0
-31 -32 241 0
34 36 242 0
-34 36 -242 0
34 -36 -242 0
-34 -36 242 0
-38 42 243 0
38 42 -243 0
-38 -42 -243 0
38 -42 243 0
44 -45 244 0
-44 -45 -244 0
44 45 -244 0
-44 45 244 0
48 50 245 0
-48 50 -245 0
48 -50 -245 0
-48 -50 245 0
234 -235 246 0
-234 -235 -246 0
234 235 -246 0
-234 235 246 0
236 -237 247 0
-236 -237 -247 0
236 237 -247 0
-236 237 247 0
238 -239 248 0
-238 -239 -248 0
238 239 -248 0
-238 239 248 0
240 -241 249 0
-240 -241 -249 0
240 241 -249 0
-240 241 249 0
242 -243 250 0
-242 -243 -250 0
242 243 -250 0
-242 243 250 0
244 -245 251 0
-244 -245 -251 0
244 245 -251 0
-244 245 251 0
246 -247 252 0
-246 -247 -252 0
246 247 -252 0
-246 247 252 0
248 -249 253 0
-248 -249 -253 0
248 249 -253 0
-248 249 253 0
250 -251 254 0
-250 -251 -254 0
250 251 -254 0
-250 251 254 0
-252 -253 254 0
252 -253 -254 0
-252 253 -254 0
252 253 254 0
-3 -5 255 0
3 -5 -255 0
-3 5 -255 0
3 5 255 0
6 -7 256 0
-6 -7 -256 0
6 7 -256 0
-6 7 256 0
-8 -12 257 0
8 -12 -257 0
-8 12 -257 0
8 12 257 0
14 -19 258 0
-14 -19 -258 0
14 19 -258 0
-14 19 258 0
20 -25 259 0
-20 -25 -259 0
20 25 -259 0
-20 25 259 0
-26 -27 260 0
26 -27 -260 0
-26 27 -260 0
26 27 260 0
31 32 261 0
-31 32 -261 0
31 -32 -261 0
-31 -32 261 0
-34 35 262 0
34 35 -262 0
-34 -35 -262 0
34 -35 262 0
-38 -39 263 0
38 -39 -263 0
-38 39 -263 0
38 39 263 0
-40 -42 264 0
40 -42 -264 0
-40 42 -264 0
40 42 264 0
-44 49 265 0
44 49 -265 0
-44 -49 -265 0
44 -49 265 0
254 -255 266 0
-254 -255 -266 0
254 255 -266 0
-254 255 266 0
256 -257 267 0
-256 -257 -267 0
256 257 -267 0
-256 257 267 0
258 -259 268 0
-258 -259 -268 0
258 259 -268 0
-258 259 268 0
260 -261 269 0
-260 -261 -269 0
260 261 -269 0
-260 261 269 0
262 -263 270 0
-262 -263 -270 0
262 263 -270 0
-262 263 270 0
264 -265 271 0
-264 -265 -271 0
264 265 -271 0
-264 265 271 0
266 -267 272 0
-266 -267 -272 0
266 267 -272 0
-266 267 272 0
268 -269 273 0
-268 -269 -273 0
268 269 -273 0
-268 269 273 0
270 -271 274 0
-270 -271 -274 0
270 271 -274 0
-270 271 274 0
-272 -273 274 0
272 -273 -274 0
-272 273 -274 0
272 273 274 0
-12 275 0
-24 275 0
-12 -24 276 0
-23 275 0
-12 -23 276 0
-24 -23 276 0
-12 -24 -23 277 0
-22 278 0
-21 278 0
-22 -21 279 0
-20 278 0
-22 -20 279 0
-21 -20 279 0
-22 -21 -20 280 0
-275 281 0
-276 282 0
-277 283 0
-278 281 0
-279 282 0
-280 283 0
-275 -278 282 0
-275 -279 283 0
-275 -280 284 0
-276 -278 283 0
-276 -279 284 0
-276 -280 285 0
-277 -278 284 0
-277 -279 285 0
-277 -280 286 0
-19 287 0
-18 287 0
-19 -18 288 0
-17 287 0
-19 -17 288 0
-18 -17 288 0
-19 -18 -17 289 0
-16 290 0
-15 290 0
-16 -15 291 0
-14 290 0
-16 -14 291 0
-15 -14 291 0
-16 -15 -14 292 0
-287 293 0
-288 294 0
-289 295 0
-290 293 0
-291 294 0
-292 295 0
-287 -290 294 0
-287 -291 295 0
-287 -292 296 0
-288 -290 295 0
-288 -291 296 0
-288 -292 297 0
-289 -290 296 0
-289 -291 297 0
-289 -292 298 0
-281 299 0
-283 300 0
-285 301 0
-293 299 0
-295 300 0
-297 301 0
-281 -293 300 0
-281 -295 301 0
-281 -297 302 0
-283 -293 301 0
-283 -295 302 0
-283 -297 303 0
-285 -293 302 0
-285 -295 303 0
-285 -297 304 0
-282 305 0
-284 306 0
-286 307 0
-294 305 0
-296 306 0
-298 307 0
-282 -294 306 0
-282 -296 307 0
-282 -298 308 0
-284 -294 307 0
-284 -296 308 0
-284 -298 309 0
-286 -294 308 0
-286 -296 309 0
-286 -298 310 0
-300 311 0
-305 311 0
-300 -305 312 0
-301 313 0
-306 313 0
-301 -306 314 0
-302 315 0
-307 315 0
-302 -307 316 0
-303 317 0
-308 317 0
-303 -308 318 0
-304 319 0
-309 319 0
-304 -309 320 0
-13 321 0
-25 321 0
-13 -25 322 0
-11 321 0
-13 -11 322 0
-25 -11 322 0
-13 -25 -11 323 0
-10 324 0
-9 324 0
-10 -9 325 0
-8 324 0
-10 -8 325 0
-9 -8 325 0
-10 -9 -8 326 0
-321 327 0
-322 328 0
-323 329 0
-324 327 0
-325 328 0
-326 329 0
-321 -324 328 0
-321 -325 329 0
-321 -326 330 0
-322 -324 329 0
-322 -325 330 0
-322 -326 331 0
-323 -324 330 0
-323 -325 331 0
-323 -326 332 0
-7 333 0
-6 333 0
-7 -6 334 0
-5 333 0
-7 -5 334 0
-6 -5 334 0
-7 -6 -5 335 0
-4 336 0
-3 336 0
-4 -3 337 0
-2 336 0
-4 -2 337 0
-3 -2 337 0
-4 -3 -2 338 0
-333 339 0
-334 340 0
-335 341 0
-336 339 0
-337 340 0
-338 341 0
-333 -336 340 0
-333 -337 341 0
-333 -338 342 0
-334 -336 341 0
-334 -337 342 0
-334 -338 343 0
-335 -336 342 0
-335 -337 343 0
-335 -338 344 0
-327 345 0
-329 346 0
-331 347 0
-339 345 0
-341 346 0
-343 347 0
-327 -339 346 0
-327 -341 347 0
-327 -343 348 0
-329 -339 347 0
-329 -341 348 0
-329 -343 349 0
-331 -339 348 0
-331 -341 349 0
-331 -343 350 0
-328 351 0
-330 352 0
-332 353 0
-340 351 0
-342 352 0
-344 353 0
-328 -340 352 0
-328 -342 353 0
-328 -344 354 0
-330 -340 353 0
-330 -342 354 0
-330 -344 355 0
-332 -340 354 0
-332 -342 355 0
-332 -344 356 0
-346 357 0
-351 357 0
-346 -351 358 0
-347 359 0
-352 359 0
-347 -352 360 0
-348 361 0
-353 361 0
-348 -353 362 0
-349 363 0
-354 363 0
-349 -354 364 0
-350 365 0
-355 365 0
-350 -355 366 0
-1 367 0
-37 367 0
-1 -37 368 0
-49 367 0
-1 -49 368 0
-37 -49 368 0
-1 -37 -49 369 0
-48 370 0
-47 370 0
-48 -47 371 0
-46 370 0
-48 -46 371 0
-47 -46 371 0
-48 -47 -46 372 0
-367 373 0
-368 374 0
-369 375 0
-370 373 0
-371 374 0
-372 375 0
-367 -370 374 0
-367 -371 375 0
-367 -372 376 0
-368 -370 375 0
-368 -371 376 0
-368 -372 377 0
-369 -370 376 0
-369 -371 377 0
-369 -372 378 0
-45 379 0
-44 379 0
-45 -44 380 0
-43 379 0
-45 -43 380 0
-44 -43 380 0
-45 -44 -43 381 0
-42 382 0
-41 382 0
-42 -41 383 0
-40 382 0
-42 -40 383 0
-41 -40 383 0
-42 -41 -40 384 0
-379 385 0
-380 386 0
-381 387 0
-382 385 0
-383 386 0
-384 387 0
-379 -382 386 0
-379 -383 387 0
-379 -384 388 0
-380 -382 387 0
-380 -383 388 0
-380 -384 389 0
-381 -382 388 0
-381 -383 389 0
-381 -384 390 0
-373 391 0
-375 392 0
-377 393 0
-385 391 0
-387 392 0
-389 393 0
-373 -385 392 0
-373 -387 393 0
-373 -389 394 0
-375 -385 393 0
-375 -387 394 0
-375 -389 395 0
-377 -385 394 0
-377 -387 395 0
-377 -389 396 0
-374 397 0
-376 398 0
-378 399 0
-386 397 0
-388 398 0
-390 399 0
-374 -386 398 0
-374 -388 399 0
-374 -390 400 0
-376 -386 399 0
-376 -388 400 0
-376 -390 401 0
-378 -386 400 0
-378 -388 401 0
-378 -390 402 0
-392 403 0
-397 403 0
-392 -397 404 0
-393 405 0
-398 405 0
-393 -398 406 0
-394 407 0
-399 407 0
-394 -399 408 0
-395 409 0
-400 409 0
-395 -400 410 0
-396 411 0
-401 411 0
-396 -401 412 0
-39 413 0
-38 413 0
-39 -38 414 0
-50 413 0
-39 -50 414 0
-38 -50 414 0
-39 -38 -50 415 0
-36 416 0
-35 416 0
-36 -35 417 0
-34 416 0
-36 -34 417 0
-35 -34 417 0
-36 -35 -34 418 0
-413 419 0
-414 420 0
-415 421 0
-416 419 0
-417 420 0
-418 421 0
-413 -416 420 0
-413 -417 421 0
-413 -418 422 0
-414 -416 421 0
-414 -417 422 0
-414 -418 423 0
-415 -416 422 0
-415 -417 423 0
-415 -418 424 0
-33 425 0
-32 425 0
-33 -32 426 0
-31 425 0
-33 -31 426 0
-32 -31 426 0
-33 -32 -31 427 0
-30 428 0
-29 428 0
-30 -29 429 0
-28 430 0
-27 430 0
-28 -27 431 0
-26 430 0
-28 -26 431 0
-27 -26 431 0
-28 -27 -26 432 0
-428 433 0
-429 434 0
-430 433 0
-431 434 0
-432 435 0
-428 -430 434 0
-428 -431 435 0
-428 -432 436 0
-429 -430 435 0
-429 -431 436 0
-429 -432 437 0
-425 438 0
-426 439 0
-427 440 0
-433 438 0
-434 439 0
-435 440 0
-436 441 0
-437 442 0
-425 -433 439 0
-425 -434 440 0
-425 -435 441 0
-425 -436 442 0
-425 -437 443 0
-426 -433 440 0
-426 -434 441 0
-426 -435 442 0
-426 -436 443 0
-426 -437 444 0
-427 -433 441 0
-427 -434 442 0
-427 -435 443 0
-427 -436 444 0
-427 -437 445 0
-419 446 0
-421 447 0
-423 448 0
-438 446 0
-440 447 0
-442 448 0
-444 449 0
-419 -438 447 0
-419 -440 448 0
-419 -442 449 0
-419 -444 450 0
-421 -438 448 0
-421 -440 449 0
-421 -442 450 0
-421 -444 451 0
-423 -438 449 0
-423 -440 450 0
-423 -442 451 0
-423 -444 452 0
-420 453 0
-422 454 0
-424 455 0
-439 453 0
-441 454 0
-443 455 0
-445 456 0
-420 -439 454 0
-420 -441 455 0
-420 -443 456 0
-420 -445 457 0
-422 -439 455 0
-422 -441 456 0
-422 -443 457 0
-422 -445 458 0
-424 -439 456 0
-424 -441 457 0
-424 -443 458 0
-424 -445 459 0
-447 460 0
-453 460 0
-447 -453 461 0
-448 462 0
-454 462 0
-448 -454 463 0
-449 464 0
-455 464 0
-449 -455 465 0
-450 466 0
-456 466 0
-450 -456 467 0
-451 468 0
-457 468 0
-451 -457 469 0
-452 470 0
-458 470 0
-452 -458 471 0
-391 472 0
-406 473 0
-410 474 0
-446 472 0
-463 473 0
-467 474 0
-471 475 0
-391 -446 473 0
-391 -463 474 0
-391 -467 475 0
-391 -471 476 0
-406 -446 474 0
-406 -463 475 0
-406 -467 476 0
-406 -471 477 0
-410 -446 475 0
-410 -463 476 0
-410 -467 477 0
-404 478 0
-408 479 0
-412 480 0
-461 478 0
-465 479 0
-469 480 0
-404 -461 479 0
-404 -465 480 0
-404 -469 481 0
-408 -461 480 0
-408 -465 481 0
-408 -469 482 0
-412 -461 481 0
-412 -465 482 0
-473 483 0
-478 483 0
-473 -478 484 0
-474 485 0
-479 485 0
-474 -479 486 0
-475 487 0
-480 487 0
-475 -480 488 0
-476 489 0
-481 489 0
-476 -481 490 0
-477 491 0
-482 491 0
-477 -482 492 0
-403 493 0
-407 494 0
-411 495 0
-460 493 0
-464 494 0
-468 495 0
-459 496 0
-403 -460 494 0
-403 -464 495 0
-403 -468 496 0
-403 -459 497 0
-407 -460 495 0
-407 -464 496 0
-407 -468 497 0
-407 -459 498 0
-411 -460 496 0
-411 -464 497 0
-411 -468 498 0
-405 499 0
-409 500 0
-402 501 0
-462 499 0
-466 500 0
-470 501 0
-405 -462 500 0
-405 -466 501 0
-405 -470 502 0
-409 -462 501 0
-409 -466 502 0
-409 -470 503 0
-402 -462 502 0
-402 -466 503 0
-494 504 0
-499 504 0
-494 -499 505 0
-495 506 0
-500 506 0
-495 -500 507 0
-496 508 0
-501 508 0
-496 -501 509 0
-497 510 0
-502 510 0
-497 -502 511 0
-498 512 0
-503 512 0
-483 513 0
-493 513 0
-483 -493 514 0
-484 515 0
-504 515 0
-484 -504 516 0
-485 517 0
-505 517 0
-485 -505 518 0
-486 519 0
-506 519 0
-486 -506 520 0
-487 521 0
-507 521 0
-487 -507 522 0
-488 523 0
-508 523 0
-488 -508 524 0
-489 525 0
-509 525 0
-489 -509 526 0
-490 527 0
-510 527 0
-490 -510 528 0
-491 529 0
-511 529 0
-491 -511 530 0
-492 531 0
-512 531 0
-492 -512 532 0
-345 533 0
-360 534 0
-364 535 0
-472 533 0
-516 534 0
-520 535 0
-524 536 0
-528 537 0
-532 538 0
-345 -472 534 0
-345 -516 535 0
-345 -520 536 0
-345 -524 537 0
-345 -528 538 0
-360 -472 535 0
-360 -516 536 0
-360 -520 537 0
-360 -524 538 0
-364 -472 536 0
-364 -516 537 0
-364 -520 538 0
-358 539 0
-362 540 0
-366 541 0
-514 539 0
-518 540 0
-522 541 0
-526 542 0
-530 543 0
-358 -514 540 0
-358 -518 541 0
-358 -522 542 0
-358 -526 543 0
-362 -514 541 0
-362 -518 542 0
-362 -522 543 0
-366 -514 542 0
-366 -518 543 0
-534 544 0
-539 544 0
-534 -539 545 0
-535 546 0
-540 546 0
-535 -540 547 0
-536 548 0
-541 548 0
-536 -541 549 0
-537 550 0
-542 550 0
-537 -542 551 0
-538 552 0
-543 552 0
-538 -543 553 0
-357 554 0
-361 555 0
-365 556 0
-513 554 0
-517 555 0
-521 556 0
-525 557 0
-529 558 0
-357 -513 555 0
-357 -517 556 0
-357 -521 557 0
-357 -525 558 0
-357 -529 559 0
-361 -513 556 0
-361 -517 557 0
-361 -521 558 0
-361 -525 559 0
-365 -513 557 0
-365 -517 558 0
-365 -521 559 0
-359 560 0
-363 561 0
-356 562 0
-515 560 0
-519 561 0
-523 562 0
-527 563 0
-531 564 0
-359 -515 561 0
-359 -519 562 0
-359 -523 563 0
-359 -527 564 0
-363 -515 562 0
-363 -519 563 0
-363 -523 564 0
-356 -515 563 0
-356 -519 564 0
-555 565 0
-560 565 0
-555 -560 566 0
-556 567 0
-561 567 0
-556 -561 568 0
-557 569 0
-562 569 0
-557 -562 570 0
-558 571 0
-563 571 0
-558 -563 572 0
-559 573 0
-564 573 0
-544 574 0
-554 574 0
-544 -554 575 0
-545 576 0
-565 576 0
-545 -565 577 0
-546 578 0
-566 578 0
-546 -566 579 0
-547 580 0
-567 580 0
-547 -567 581 0
-548 582 0
-568 582 0
-548 -568 583 0
-549 584 0
-569 584 0
-549 -569 585 0
-550 586 0
-570 586 0
-550 -570 587 0
-551 588 0
-571 588 0
-551 -571 589 0
-552 590 0
-572 590 0
-552 -572 591 0
-553 592 0
-573 592 0
-553 -573 593 0
-299 594 0
-314 595 0
-318 596 0
-533 594 0
-577 595 0
-581 596 0
-585 597 0
-589 598 0
-593 599 0
-299 -533 595 0
-299 -577 596 0
-299 -581 597 0
-299 -585 598 0
-299 -589 599 0
-314 -533 596 0
-314 -577 597 0
-314 -581 598 0
-314 -585 599 0
-318 -533 597 0
-318 -577 598 0
-318 -581 599 0
-312 600 0
-316 601 0
-320 602 0
-575 600 0
-579 601 0
-583 602 0
-587 603 0
-591 604 0
-312 -575 601 0
-312 -579 602 0
-312 -583 603 0
-312 -587 604 0
-316 -575 602 0
-316 -579 603 0
-316 -583 604 0
-320 -575 603 0
-320 -579 604 0
-595 605 0
-600 605 0
-595 -600 606 0
-596 607 0
-601 607 0
-596 -601 608 0
-597 609 0
-602 609 0
-597 -602 610 0
-598 611 0
-603 611 0
-598 -603 612 0
-599 613 0
-604 613 0
-599 -604 614 0
-311 615 0
-315 616 0
-319 617 0
-574 615 0
-578 616 0
-582 617 0
-586 618 0
-590 619 0
-311 -574 616 0
-311 -578 617 0
-311 -582 618 0
-311 -586 619 0
-311 -590 620 0
-315 -574 617 0
-315 -578 618 0
-315 -582 619 0
-315 -586 620 0
-319 -574 618 0
-319 -578 619 0
-319 -582 620 0
-313 621 0
-317 622 0
-310 623 0
-576 621 0
-580 622 0
-584 623 0
-588 624 0
-592 625 0
-313 -576 622 0
-313 -580 623 0
-313 -584 624 0
-313 -588 625 0
-317 -576 623 0
-317 -580 624 0
-317 -584 625 0
-310 -576 624 0
-310 -580 625 0
-616 626 0
-621 626 0
-616 -621 627 0
-617 628 0
-622 628 0
-617 -622 629 0
-618 630 0
-623 630 0
-618 -623 631 0
-619 632 0
-624 632 0
-619 -624 633 0
-620 634 0
-625 634 0
-605 635 0
-615 635 0
-605 -615 636 0
-606 637 0
-626 637 0
-606 -626 638 0
-607 639 0
-627 639 0
-607 -627 640 0
-608 641 0
-628 641 0
-608 -628 642 0
-609 643 0
-629 643 0
-609 -629 644 0
-610 645 0
-630 645 0
-610 -630 646 0
-611 647 0
-631 647 0
-611 -631 648 0
-612 649 0
-632 649 0
-612 -632 650 0
-613 651 0
-633 651 0
-613 -633 652 0
-614 653 0
-634 653 0
-614 -634 654 0
-654 0
